  9	62
 18
  0	 50	  4	 66	112	 25	  7	 16	 87	 69	 38	100	  2	 78	 11	 64	 73	125	
 20
  0	 45	 10	 54	  6	107	116	 31	 72	 36	 13	 93	 24	 98	 30	 86	 68	 92	 75	125	
 22
  0	 58	 28	 34	 90	 15	120	 96	 77	 37	 53	 46	115	 99	 56	 41	103	 55	118	117	108	125	
  8
  0	 39	 35	101	 18	 97	 80	125	
 16
  0	 33	 12	 74	 62	 95	124	 49	 40	102	 48	111	  9	110	 71	125	
 18
  0	 52	 42	104	 43	105	 26	 23	114	 17	 85	 44	 88	 29	 79	 91	106	125	
 14
  0	  1	  8	 61	  3	 63	 70	  5	 65	123	 67	 14	 76	125	
 18
  0	 22	 51	113	 32	 60	 84	 94	 27	122	 57	 20	 89	 59	 82	119	121	125	
  8
  0	 47	109	 19	 21	 81	 83	125	
